NAME 
ROWS
 N  OBJ
 L  R0      
 L  R1      
 E  R2      
 E  R3      
 E  R4      
 E  R5      
 E  R6      
 E  R7      
 E  R8      
 E  R9      
 E  R10     
 E  R11     
 E  R12     
 E  R13     
 E  R14     
 E  R15     
 E  R16     
COLUMNS
    MARKER    'MARKER'                 'INTORG'
    I0(6)     OBJ       41
    I0(6)     R0        121
    I0(6)     R1        -34
    I0(6)     R4        15
    I0(6)     R6        13
    I0(6)     R8        10
    I0(6)     R16       1
    I1(8)     OBJ       86
    I1(8)     R0        -101
    I1(8)     R1        148
    I1(8)     R2        5
    I1(8)     R3        5
    I1(8)     R6        3
    I1(8)     R7        19
    I1(8)     R8        9
    I1(8)     R16       1
    I2(6)     OBJ       -16
    I2(6)     R0        191
    I2(6)     R1        170
    I2(6)     R3        14
    I2(6)     R6        9
    I2(6)     R8        11
    I2(6)     R16       1
    I3(5)     OBJ       180
    I3(5)     R0        -119
    I3(5)     R1        -85
    I3(5)     R3        7
    I3(5)     R5        4
    I3(5)     R16       1
    I4(8)     OBJ       -74
    I4(8)     R0        107
    I4(8)     R1        6
    I4(8)     R4        4
    I4(8)     R5        1
    I4(8)     R6        18
    I4(8)     R7        9
    I4(8)     R8        6
    I4(8)     R16       1
    I5(7)     OBJ       149
    I5(7)     R0        -176
    I5(7)     R1        -79
    I5(7)     R3        11
    I5(7)     R5        19
    I5(7)     R7        1
    I5(7)     R8        -1
    I5(7)     R16       1
    I6(8)     OBJ       -159
    I6(8)     R0        -112
    I6(8)     R1        -84
    I6(8)     R4        2
    I6(8)     R5        17
    I6(8)     R6        10
    I6(8)     R7        18
    I6(8)     R8        19
    I6(8)     R16       1
    MARKER    'MARKER'                 'INTEND'
    C7(10)    OBJ       -4
    C7(10)    R0        6
    C7(10)    R1        3
    C7(10)    R2        7
    C7(10)    R3        16
    C7(10)    R6        14
    C7(10)    R8        12
    C7(10)    R11       6
    C7(10)    R12       7
    C7(10)    R14       10
    C7(10)    R15       3
    C8(5)     OBJ       6
    C8(5)     R0        8
    C8(5)     R1        1
    C8(5)     R5        -1
    C8(5)     R10       19
    C8(5)     R14       4
    C9(10)    OBJ       9
    C9(10)    R0        -7
    C9(10)    R1        -6
    C9(10)    R2        5
    C9(10)    R3        9
    C9(10)    R4        6
    C9(10)    R6        3
    C9(10)    R8        4
    C9(10)    R10       4
    C9(10)    R13       9
    C9(10)    R15       15
    C10(10)   OBJ       -10
    C10(10)   R0        -7
    C10(10)   R2        -1
    C10(10)   R3        -1
    C10(10)   R6        15
    C10(10)   R8        12
    C10(10)   R9        1
    C10(10)   R10       3
    C10(10)   R12       6
    C10(10)   R14       2
    C10(10)   R15       12
    C11(9)    OBJ       3
    C11(9)    R0        -4
    C11(9)    R1        -4
    C11(9)    R3        2
    C11(9)    R4        13
    C11(9)    R5        3
    C11(9)    R7        10
    C11(9)    R11       18
    C11(9)    R12       17
    C11(9)    R13       19
    C12(6)    OBJ       -2
    C12(6)    R0        -9
    C12(6)    R1        6
    C12(6)    R3        13
    C12(6)    R10       14
    C12(6)    R11       17
    C12(6)    R14       7
    C13(10)   OBJ       1
    C13(10)   R0        -9
    C13(10)   R1        4
    C13(10)   R2        14
    C13(10)   R4        14
    C13(10)   R6        1
    C13(10)   R7        2
    C13(10)   R8        10
    C13(10)   R11       6
    C13(10)   R12       15
    C13(10)   R13       8
    C14(11)   OBJ       8
    C14(11)   R0        -5
    C14(11)   R1        3
    C14(11)   R3        19
    C14(11)   R5        -1
    C14(11)   R7        3
    C14(11)   R8        11
    C14(11)   R10       17
    C14(11)   R11       14
    C14(11)   R12       6
    C14(11)   R13       13
    C14(11)   R14       7
    C15(1)    R2        1
    C16(1)    R3        1
    C17(1)    R4        1
    C18(1)    R5        1
    C19(1)    R6        1
    C20(1)    R7        1
    C21(1)    R8        1
    C22(1)    R9        1
    C23(1)    R10       1
    C24(1)    R11       1
    C25(1)    R12       1
    C26(1)    R13       1
    C27(1)    R14       1
    C28(1)    R15       1
    C29(1)    R16       1
RHS
    RHS1      R0        -6.3790476190476518e+01
    RHS1      R1        -5.6228571428571513e+01
    RHS1      R2        83
    RHS1      R3        61
    RHS1      R4        70
    RHS1      R5        68
    RHS1      R6        84
    RHS1      R7        95
    RHS1      R8        98
    RHS1      R9        91
    RHS1      R10       62
    RHS1      R11       65
    RHS1      R12       75
    RHS1      R13       66
    RHS1      R14       88
    RHS1      R15       53
    RHS1      R16       2
BOUNDS
 UP BND1      I0(6)     1
 UP BND1      I1(8)     1
 UP BND1      I2(6)     1
 UP BND1      I3(5)     1
 UP BND1      I4(8)     1
 UP BND1      I5(7)     1
 UP BND1      I6(8)     1
ENDATA
